86
0 30 49 60 51 41 16 8 14 7 
26 68 31 50 48 35 36 58 46 11 
22 66 38 19 82 25 32 43 45 61 
34 4 21 69 55 59 72 18 77 6 
24 53 65 52 20 81 56 62 29 79 
9 33 83 78 5 64 73 71 1 13 
70 54 2 10 84 27 15 57 76 80 
12 47 85 75 3 42 17 67 39 23 
40 63 44 37 28 74 
